qbf_easy_train/easy_4249_SAT.qdimacs
p cnf 26 67
a 25 12 21 0
e 1 2 3 4 5 6 7 8 9 10 11 13 14 15 16 17 18 19 20 22 23 24 26 0
-3 1 0
-3 -2 0
-1 2 3 0
-4 5 -6 0
4 -5 -6 0
-4 -5 6 0
4 5 6 0
-3 -6 -7 0
3 6 -7 0
-3 6 7 0
3 -6 7 0
5 4 -8 0
-5 -4 -8 0
5 -4 8 0
-5 4 8 0
-10 8 0
-10 9 0
-8 -9 10 0
-11 2 0
-11 1 0
-2 -1 11 0
13 -11 0
13 12 0
11 -12 -13 0
-14 10 0
-14 -13 0
-10 13 14 0
15 -7 0
15 14 0
7 -14 -15 0
-17 -1 0
-17 11 0
1 -11 17 0
18 -16 0
18 17 0
16 -17 -18 0
19 -15 0
19 18 0
15 -18 -19 0
-21 5 0
-21 -20 0
-5 20 21 0
21 17 -22 0
-21 -17 -22 0
21 -17 22 0
-21 17 22 0
23 22 0
23 20 0
-22 -20 -23 0
4 -21 -24 0
-4 21 -24 0
4 21 24 0
-4 -21 24 0
-23 -24 -25 0
23 24 -25 0
-23 24 25 0
23 -24 25 0
26 -19 0
26 -25 0
19 25 -26 0
25 24 3 -14 23 0
9 -13 -25 -24 -3 4 0
-19 -26 -3 12 18 0
8 1 -18 16 10 13 0
-26 17 5 -3 -15 21 0
-9 6 -18 -11 0
26 0
