sat_easy_train/easy_4249_SAT.dimacs
p cnf 119 389
3 -1 0
3 2 0
1 -2 -3 0
1 4 -5 0
-1 -4 -5 0
1 -4 5 0
-1 4 5 0
-6 -3 0
-6 5 0
3 -5 6 0
1 8 -9 0
-1 -8 -9 0
1 -8 9 0
-1 8 9 0
-9 -10 -11 0
9 10 -11 0
-9 10 11 0
9 -10 11 0
-12 7 0
-12 -11 0
-7 11 12 0
-6 -12 -13 0
6 12 -13 0
-6 12 13 0
6 -12 13 0
16 -15 0
16 -4 0
15 4 -16 0
14 16 -17 0
-14 -16 -17 0
14 -16 17 0
-14 16 17 0
-18 19 -20 0
18 -19 -20 0
-18 -19 20 0
18 19 20 0
-22 -20 0
-22 21 0
20 -21 22 0
-23 -9 0
-23 -22 0
9 22 23 0
-24 -17 0
-24 23 0
17 -23 24 0
25 7 0
25 15 0
-7 -15 -25 0
1 -18 -26 0
-1 18 -26 0
1 18 26 0
-1 -18 26 0
-27 9 0
-27 -26 0
-9 26 27 0
28 25 0
28 -27 0
-25 27 -28 0
-29 24 0
-29 28 0
-24 -28 29 0
-3 21 -30 0
3 -21 -30 0
-3 -21 30 0
3 21 30 0
31 29 0
31 30 0
-29 -30 -31 0
13 31 -32 0
-13 -31 -32 0
13 -31 32 0
-13 31 32 0
33 2 0
33 -15 0
-2 15 -33 0
36 -34 0
36 35 0
34 -35 -36 0
-37 9 0
-37 -36 0
-9 36 37 0
33 37 -38 0
-33 -37 -38 0
33 -37 38 0
-33 37 38 0
39 -4 0
39 -2 0
4 2 -39 0
-39 8 -40 0
39 -8 -40 0
-39 -8 40 0
39 8 40 0
-41 8 0
-41 -40 0
-8 40 41 0
42 -5 0
42 41 0
5 -41 -42 0
-43 4 0
-43 -42 0
-4 42 43 0
-44 38 0
-44 43 0
-38 -43 44 0
-39 26 -45 0
39 -26 -45 0
-39 -26 45 0
39 26 45 0
-47 46 0
-47 19 0
-46 -19 47 0
-48 -47 0
-48 -36 0
47 36 48 0
49 -21 0
49 -48 0
21 48 -49 0
-50 45 0
-50 -49 0
-45 49 50 0
-51 21 0
-51 16 0
-21 -16 51 0
16 -51 -52 0
-16 51 -52 0
16 51 52 0
-16 -51 52 0
-1 -52 -53 0
1 52 -53 0
-1 52 53 0
1 -52 53 0
54 -53 0
54 -48 0
53 48 -54 0
-50 54 -55 0
50 -54 -55 0
-50 -54 55 0
50 54 55 0
56 -1 0
56 47 0
1 -47 -56 0
-57 33 0
-57 -56 0
-33 56 57 0
40 4 -58 0
-40 -4 -58 0
40 -4 58 0
-40 4 58 0
-59 57 0
-59 58 0
-57 -58 59 0
23 22 -60 0
-23 -22 -60 0
23 -22 60 0
-23 22 60 0
-62 39 0
-62 -23 0
-39 23 62 0
-63 -61 0
-63 -62 0
61 62 63 0
64 -60 0
64 63 0
60 -63 -64 0
65 -59 0
65 -64 0
59 64 -65 0
66 -55 0
66 -65 0
55 65 -66 0
67 52 0
67 3 0
-52 -3 -67 0
68 8 0
68 15 0
-8 -15 -68 0
-69 16 0
-69 -68 0
-16 68 69 0
67 69 -70 0
-67 -69 -70 0
67 -69 70 0
-67 69 70 0
-71 66 0
-71 70 0
-66 -70 71 0
-72 44 0
-72 -71 0
-44 71 72 0
73 32 0
73 -72 0
-32 72 -73 0
-26 -56 -74 0
26 56 -74 0
-26 56 74 0
26 -56 74 0
75 -18 0
75 19 0
18 -19 -75 0
-75 76 0
75 76 0
77 46 0
77 -76 0
-46 76 -77 0
-74 77 -78 0
74 -77 -78 0
-74 -77 78 0
74 77 78 0
7 79 -80 0
-7 -79 -80 0
7 -79 80 0
-7 79 80 0
-3 -75 -81 0
3 75 -81 0
-3 75 81 0
3 -75 81 0
-82 -80 0
-82 -81 0
80 81 82 0
-58 -76 -83 0
58 76 -83 0
-58 76 83 0
58 -76 83 0
84 82 0
84 -83 0
-82 83 -84 0
-85 76 0
-85 -48 0
-76 48 85 0
-86 10 0
-86 -85 0
-10 85 86 0
-87 11 0
-87 15 0
-11 -15 87 0
-88 -79 0
-88 -87 0
79 87 88 0
-89 -53 0
-89 21 0
53 -21 89 0
90 11 0
90 19 0
-11 -19 -90 0
91 19 0
91 90 0
-19 -90 -91 0
-92 89 0
-92 -91 0
-89 91 92 0
93 -88 0
93 92 0
88 -92 -93 0
94 41 0
94 -75 0
-41 75 -94 0
-35 -94 -95 0
35 94 -95 0
-35 94 95 0
35 -94 95 0
-96 93 0
-96 95 0
-93 -95 96 0
-97 -86 0
-97 96 0
86 -96 97 0
98 36 0
98 -42 0
-36 42 -98 0
-99 68 0
-99 98 0
-68 -98 99 0
100 97 0
100 99 0
-97 -99 -100 0
-101 84 0
-101 100 0
-84 -100 101 0
102 -78 0
102 -101 0
78 101 -102 0
103 73 0
103 102 0
-73 -102 -103 0
-104 -22 0
-104 -9 0
22 9 104 0
105 23 0
105 -18 0
-23 18 -105 0
-106 -104 0
-106 105 0
104 -105 106 0
18 -8 -107 0
-18 8 -107 0
18 8 107 0
-18 -8 107 0
-108 -106 0
-108 107 0
106 -107 108 0
109 -51 0
109 62 0
51 -62 -109 0
110 -40 0
110 21 0
40 -21 -110 0
109 110 -111 0
-109 -110 -111 0
109 -110 111 0
-109 110 111 0
-112 79 0
-112 -9 0
-79 9 112 0
113 53 0
113 -112 0
-53 112 -113 0
113 -3 -114 0
-113 3 -114 0
113 3 114 0
-113 -3 114 0
115 90 0
115 -20 0
-90 20 -115 0
116 -114 0
116 -115 0
114 115 -116 0
111 -116 -117 0
-111 116 -117 0
111 116 117 0
-111 -116 117 0
108 117 -118 0
-108 -117 -118 0
108 -117 118 0
-108 117 118 0
-119 103 0
-119 118 0
-103 -118 119 0
3 5 41 -53 15 -64 0
115 -90 1 -71 6 0
-2 -70 -36 -5 42 0
-60 59 -12 118 0
-115 -114 -51 -86 -31 37 0
-49 1 -21 -26 0
-105 22 67 -53 -115 0
111 78 26 99 0
-115 10 -62 0
-75 -25 0
-97 -7 96 51 0
-52 82 -70 -98 8 0
-55 117 33 0
113 79 90 2 0
-84 13 -107 0
-9 2 64 65 -61 -90 0
43 21 16 0
101 119 -61 0
85 118 59 0
-45 -108 0
72 19 25 -8 -2 0
-68 -20 -34 32 0
-32 -51 -96 0
31 -30 0
-91 26 -84 77 0
112 -2 -68 -12 0
85 2 -73 0
9 -106 -26 101 108 0
43 -112 0
34 -65 99 0
-74 -11 -35 87 119 -66 0
-24 -115 -78 -12 0
31 -119 86 -100 0
86 -104 -117 4 -80 -23 0
108 -64 0
-76 38 57 -13 49 0
51 -5 64 107 41 -13 0
-66 -95 -90 0
-71 79 65 -64 0
-110 1 39 36 0
41 -86 0
76 50 0
-28 -117 -23 -95 -9 0
84 53 0
102 99 48 90 0
28 -99 0
33 18 -6 -75 -85 0
98 -5 -3 -100 -76 0
57 104 19 -103 -59 0
25 95 0
59 96 24 -101 -42 0
119 0
